45270.94,61.07,74.06
47768.48,57.88,70.18
52397.82,52.76,63.98
52664.88,52.49,63.66
44328.35,62.37,75.63
45859.2,60.28,73.11
49712.73,55.61,67.44
46982.4,58.84,71.36
43581.08,63.44,76.93
50183.7,55.09,66.81
46544.08,59.4,72.03
44144.9,62.63,75.95
51834.46,53.34,64.68
46664.39,59.24,71.85
43121.06,64.11,77.75
44826.38,61.67,74.79
42056.56,65.73,79.72
45326.03,60.99,73.97
49060.89,56.35,68.34
44879.88,61.6,74.7
